c ! encoding i-pc 250
p cnf 877 2265
-251 0
251 -252 0
251 -253 0
251 -254 0
251 -255 0
251 -256 0
251 -257 0
251 -258 0
251 -259 0
-38 -260 0
-65 -260 0
260 -261 0
185 -261 0
262 0
263 -264 0
264 -265 0
65 -265 0
-38 -266 0
-65 -266 0
265 266 -267 0
267 -268 0
-185 -268 0
261 268 -269 0
270 -271 0
271 -272 0
53 -272 0
77 -273 0
-53 -273 0
272 273 -274 0
274 -275 0
112 -275 0
53 -276 0
270 -276 0
276 -277 0
-112 -277 0
275 277 -278 0
279 -280 0
280 -281 0
170 -281 0
50 -282 0
-170 -282 0
281 282 -283 0
33 -284 0
76 -284 0
177 -284 0
-225 -284 0
284 -285 0
218 -285 0
-225 -286 0
76 -286 0
287 -288 0
288 -289 0
-76 -289 0
286 289 -290 0
290 -291 0
177 -291 0
-76 -292 0
225 -292 0
292 -293 0
-177 -293 0
291 293 -294 0
295 -296 0
296 -297 0
181 -297 0
-33 -298 0
-181 -298 0
297 298 -299 0
294 -300 0
299 -300 0
300 -301 0
-218 -301 0
285 301 -302 0
55 -303 0
-87 -303 0
-130 -303 0
132 -303 0
-139 -303 0
178 -303 0
-189 -303 0
221 -303 0
304 -308 0
305 -308 0
306 -308 0
307 -308 0
278 -309 0
283 -309 0
302 -309 0
303 -309 0
308 -309 0
309 -311 0
310 -311 0
311 -312 0
72 -312 0
132 -313 0
-139 -313 0
313 -314 0
183 -314 0
315 -316 0
316 -317 0
132 -317 0
139 -318 0
-132 -318 0
317 318 -319 0
319 -320 0
-183 -320 0
314 320 -321 0
321 -322 0
307 -322 0
322 -323 0
221 -323 0
-132 -324 0
139 -324 0
-183 -324 0
246 -324 0
324 -325 0
-221 -325 0
323 325 -326 0
327 -329 0
328 -329 0
329 -330 0
87 -330 0
-130 -331 0
177 -331 0
331 -332 0
-87 -332 0
330 332 -333 0
178 -334 0
-189 -334 0
283 -335 0
333 -335 0
334 -335 0
306 -335 0
335 -336 0
304 -336 0
336 -337 0
55 -337 0
248 -338 0
189 -338 0
306 -339 0
339 -340 0
-189 -340 0
338 340 -341 0
-50 -342 0
87 -342 0
170 -342 0
-208 -342 0
327 -343 0
328 -343 0
341 -344 0
342 -344 0
343 -344 0
344 -346 0
345 -346 0
346 -347 0
-55 -347 0
337 347 -348 0
33 -349 0
76 -349 0
-225 -349 0
326 -350 0
348 -350 0
349 -350 0
350 -351 0
218 -351 0
307 -353 0
352 -353 0
353 -354 0
221 -354 0
-132 -355 0
246 -355 0
355 -356 0
-221 -356 0
354 356 -357 0
181 -358 0
-183 -358 0
357 -359 0
358 -359 0
295 -359 0
359 -360 0
139 -360 0
132 -361 0
221 -361 0
299 -362 0
361 -362 0
307 -362 0
362 -363 0
305 -363 0
363 -364 0
-139 -364 0
360 364 -365 0
290 -366 0
327 -366 0
328 -366 0
366 -367 0
87 -367 0
294 -368 0
-130 -368 0
368 -369 0
-87 -369 0
367 369 -370 0
283 -371 0
370 -371 0
334 -371 0
306 -371 0
371 -372 0
304 -372 0
372 -373 0
55 -373 0
327 -374 0
328 -374 0
341 -375 0
290 -375 0
342 -375 0
374 -375 0
375 -376 0
345 -376 0
376 -377 0
-55 -377 0
373 377 -378 0
365 -379 0
378 -379 0
379 -380 0
-218 -380 0
351 380 -381 0
53 -382 0
-112 -382 0
-141 -382 0
381 -383 0
382 -383 0
270 -383 0
383 -384 0
-72 -384 0
312 384 -385 0
3 -386 0
-4 -386 0
7 -386 0
-10 -386 0
12 -386 0
-13 -386 0
-15 -386 0
-16 -386 0
-23 -386 0
30 -386 0
32 -386 0
-39 -386 0
42 -386 0
-44 -386 0
-45 -386 0
-48 -386 0
-52 -386 0
-54 -386 0
57 -386 0
-59 -386 0
-67 -386 0
69 -386 0
74 -386 0
78 -386 0
82 -386 0
84 -386 0
98 -386 0
-104 -386 0
-106 -386 0
-107 -386 0
-109 -386 0
-110 -386 0
120 -386 0
-121 -386 0
-125 -386 0
128 -386 0
133 -386 0
-135 -386 0
136 -386 0
137 -386 0
138 -386 0
-144 -386 0
147 -386 0
-151 -386 0
152 -386 0
-155 -386 0
-159 -386 0
-162 -386 0
164 -386 0
167 -386 0
174 -386 0
-175 -386 0
-176 -386 0
-179 -386 0
-180 -386 0
188 -386 0
191 -386 0
-193 -386 0
-198 -386 0
202 -386 0
-210 -386 0
211 -386 0
212 -386 0
-215 -386 0
-224 -386 0
-227 -386 0
-229 -386 0
-232 -386 0
237 -386 0
238 -386 0
250 -386 0
387 -392 0
388 -392 0
389 -392 0
390 -392 0
391 -392 0
269 -393 0
385 -393 0
392 -393 0
251 -395 0
-68 -397 0
105 -397 0
397 -398 0
-166 -401 0
-171 -401 0
-182 -401 0
401 -402 0
-9 -405 0
-36 -405 0
58 -405 0
-119 -405 0
-148 -405 0
-154 -405 0
-192 -405 0
207 -405 0
-223 -405 0
-241 -405 0
405 -406 0
251 -408 0
90 -410 0
199 -410 0
410 -411 0
11 -414 0
-101 -414 0
149 -414 0
-187 -414 0
-205 -414 0
414 -415 0
251 -417 0
1 -419 0
-17 -419 0
-239 -419 0
419 -420 0
-140 -421 0
85 -423 0
423 -424 0
-243 -425 0
197 -427 0
251 -429 0
251 -432 0
251 -442 0
71 -444 0
251 -445 0
251 -446 0
251 -447 0
251 -448 0
251 -449 0
450 -451 0
451 -452 0
53 -452 0
250 -453 0
-53 -453 0
452 453 -454 0
455 -456 0
456 -457 0
12 -457 0
-65 -458 0
-12 -458 0
457 458 -459 0
460 -461 0
461 -462 0
132 -462 0
-120 -463 0
-132 -463 0
462 463 -464 0
459 -465 0
464 -465 0
465 -466 0
263 -466 0
466 -467 0
15 -467 0
267 -468 0
12 -468 0
260 -469 0
-12 -469 0
468 469 -470 0
470 -471 0
-120 -471 0
352 -471 0
471 -472 0
-15 -472 0
467 472 -473 0
54 -474 0
50 -474 0
475 -476 0
476 -477 0
-50 -477 0
474 477 -478 0
9 -479 0
-107 -479 0
-125 -479 0
473 -480 0
478 -480 0
479 -480 0
388 -480 0
480 -482 0
481 -482 0
482 -483 0
7 -483 0
9 -484 0
54 -484 0
484 -485 0
50 -485 0
475 -486 0
486 -487 0
9 -487 0
-54 -488 0
-9 -488 0
487 488 -489 0
489 -490 0
-50 -490 0
485 490 -491 0
464 -492 0
263 -492 0
492 -493 0
15 -493 0
-38 -494 0
-120 -494 0
494 -495 0
352 -495 0
495 -496 0
-15 -496 0
493 496 -497 0
94 -498 0
107 -498 0
388 -499 0
499 -500 0
-107 -500 0
498 500 -501 0
-12 -502 0
-65 -502 0
491 -504 0
497 -504 0
501 -504 0
502 -504 0
503 -504 0
504 -505 0
-7 -505 0
483 505 -506 0
306 -507 0
307 -507 0
188 -508 0
507 -508 0
508 -510 0
509 -510 0
510 -511 0
159 -511 0
307 -512 0
306 -512 0
512 -513 0
188 -513 0
-246 -514 0
-248 -514 0
514 -515 0
-188 -515 0
513 515 -516 0
516 -517 0
211 -517 0
517 -518 0
-159 -518 0
511 518 -519 0
520 -522 0
521 -522 0
522 -523 0
98 -523 0
-58 -524 0
155 -524 0
524 -525 0
-98 -525 0
523 525 -526 0
179 -527 0
180 -527 0
519 -528 0
526 -528 0
527 -528 0
528 -529 0
218 -529 0
526 -530 0
179 -530 0
530 -531 0
180 -531 0
521 -532 0
532 -533 0
179 -533 0
-155 -534 0
-179 -534 0
533 534 -535 0
535 -536 0
520 -536 0
536 -537 0
98 -537 0
-58 -538 0
155 -538 0
179 -538 0
538 -539 0
-98 -539 0
537 539 -540 0
540 -541 0
-180 -541 0
531 541 -542 0
188 -543 0
307 -543 0
543 -544 0
509 -544 0
544 -545 0
159 -545 0
307 -546 0
546 -547 0
188 -547 0
-246 -548 0
-188 -548 0
547 548 -549 0
549 -550 0
211 -550 0
550 -551 0
-159 -551 0
545 551 -552 0
542 -553 0
552 -553 0
553 -554 0
306 -554 0
554 -555 0
-218 -555 0
529 555 -556 0
556 -557 0
-189 -557 0
557 -558 0
109 -558 0
509 -559 0
559 -560 0
159 -560 0
211 -561 0
-159 -561 0
560 561 -562 0
341 -563 0
562 -563 0
563 -564 0
307 -564 0
564 -565 0
188 -565 0
-159 -566 0
-189 -566 0
211 -566 0
-246 -566 0
-248 -566 0
566 -567 0
-188 -567 0
565 567 -568 0
568 -569 0
526 -569 0
527 -569 0
569 -570 0
218 -570 0
526 -571 0
179 -571 0
571 -572 0
180 -572 0
535 -573 0
98 -573 0
520 -573 0
573 -574 0
-180 -574 0
572 574 -575 0
575 -576 0
341 -576 0
552 -576 0
576 -577 0
-218 -577 0
570 577 -578 0
578 -579 0
-109 -579 0
558 579 -580 0
506 -581 0
580 -581 0
581 -582 0
128 -582 0
535 -583 0
98 -583 0
155 -584 0
179 -584 0
584 -585 0
-98 -585 0
583 585 -586 0
586 -587 0
-189 -587 0
306 -587 0
587 -588 0
109 -588 0
535 -589 0
341 -589 0
98 -589 0
589 -590 0
-109 -590 0
588 590 -591 0
-7 -592 0
-9 -592 0
-12 -592 0
-50 -592 0
-54 -592 0
-58 -592 0
-65 -592 0
-180 -592 0
-218 -592 0
497 -593 0
591 -593 0
552 -593 0
501 -593 0
592 -593 0
503 -593 0
593 -594 0
-128 -594 0
582 594 -595 0
121 -597 0
596 -597 0
597 -598 0
24 -598 0
596 -599 0
599 -600 0
121 -600 0
-215 -601 0
-121 -601 0
600 601 -602 0
602 -603 0
-24 -603 0
598 603 -604 0
-3 -605 0
4 -605 0
-10 -605 0
-11 -605 0
16 -605 0
-17 -605 0
-23 -605 0
30 -605 0
32 -605 0
33 -605 0
-36 -605 0
39 -605 0
-42 -605 0
44 -605 0
-45 -605 0
48 -605 0
52 -605 0
55 -605 0
-57 -605 0
-59 -605 0
-67 -605 0
74 -605 0
-76 -605 0
77 -605 0
84 -605 0
90 -605 0
104 -605 0
-105 -605 0
106 -605 0
-110 -605 0
112 -605 0
119 -605 0
-130 -605 0
-133 -605 0
136 -605 0
-138 -605 0
-139 -605 0
141 -605 0
-154 -605 0
164 -605 0
170 -605 0
171 -605 0
-174 -605 0
-175 -605 0
176 -605 0
178 -605 0
-182 -605 0
-183 -605 0
-187 -605 0
193 -605 0
198 -605 0
-199 -605 0
-202 -605 0
-208 -605 0
210 -605 0
-212 -605 0
221 -605 0
224 -605 0
225 -605 0
-229 -605 0
232 -605 0
237 -605 0
-238 -605 0
239 -605 0
241 -605 0
606 -608 0
328 -608 0
607 -608 0
454 -609 0
595 -609 0
604 -609 0
605 -609 0
608 -609 0
609 -610 0
251 -611 0
610 611 -612 0
185 -613 0
612 -614 0
613 -614 0
614 -615 0
449 615 -616 0
-87 -617 0
616 -618 0
617 -618 0
618 -619 0
448 619 -620 0
620 -621 0
621 -622 0
243 -622 0
251 -623 0
251 -624 0
-54 -625 0
84 -625 0
625 -627 0
626 -627 0
627 -628 0
164 -628 0
-84 -629 0
-179 -629 0
629 -630 0
475 -630 0
630 -631 0
-164 -631 0
628 631 -632 0
183 -633 0
189 -633 0
305 -634 0
634 -635 0
-189 -635 0
633 635 -636 0
636 -637 0
109 -637 0
305 -639 0
638 -639 0
639 -640 0
-109 -640 0
637 640 -641 0
141 -642 0
182 -642 0
643 -645 0
644 -645 0
642 -646 0
645 -646 0
646 -647 0
229 -647 0
643 -648 0
648 -649 0
141 -649 0
110 -650 0
-141 -650 0
649 650 -651 0
651 -652 0
644 -652 0
652 -653 0
182 -653 0
-110 -654 0
138 -654 0
643 -655 0
655 -656 0
-138 -656 0
654 656 -657 0
657 -658 0
141 -658 0
110 -659 0
-138 -659 0
659 -660 0
-141 -660 0
658 660 -661 0
661 -662 0
-182 -662 0
653 662 -663 0
663 -664 0
-229 -664 0
647 664 -665 0
10 -666 0
-32 -666 0
53 -666 0
-250 -666 0
667 -669 0
668 -669 0
632 -670 0
641 -670 0
549 -670 0
665 -670 0
666 -670 0
669 -670 0
670 -671 0
39 -671 0
-10 -672 0
30 -672 0
-67 -672 0
188 -672 0
672 -673 0
307 -673 0
673 -674 0
450 -674 0
674 -675 0
32 -675 0
10 -676 0
-250 -676 0
549 -677 0
676 -677 0
677 -678 0
667 -678 0
668 -678 0
678 -679 0
-32 -679 0
675 679 -680 0
53 -681 0
-54 -681 0
84 -681 0
680 -682 0
681 -682 0
682 -683 0
626 -683 0
683 -684 0
164 -684 0
454 -685 0
672 -685 0
307 -685 0
685 -686 0
32 -686 0
10 -687 0
53 -687 0
-250 -687 0
549 -688 0
687 -688 0
688 -689 0
667 -689 0
668 -689 0
689 -690 0
-32 -690 0
686 690 -691 0
691 -692 0
629 -692 0
692 -693 0
475 -693 0
693 -694 0
-164 -694 0
684 694 -695 0
642 -696 0
643 -696 0
696 -697 0
229 -697 0
651 -698 0
182 -698 0
-110 -699 0
141 -699 0
699 -700 0
-182 -700 0
698 700 -701 0
701 -702 0
-229 -702 0
697 702 -703 0
138 -704 0
-189 -704 0
705 -706 0
305 -706 0
695 -707 0
703 -707 0
704 -707 0
706 -707 0
707 -708 0
-39 -708 0
671 708 -709 0
3 -710 0
-4 -710 0
7 -710 0
-9 -710 0
12 -710 0
-13 -710 0
-15 -710 0
17 -710 0
23 -710 0
-24 -710 0
33 -710 0
38 -710 0
42 -710 0
-44 -710 0
45 -710 0
-48 -710 0
50 -710 0
-52 -710 0
55 -710 0
57 -710 0
-58 -710 0
59 -710 0
65 -710 0
-74 -710 0
-76 -710 0
-77 -710 0
94 -710 0
98 -710 0
-104 -710 0
105 -710 0
-106 -710 0
112 -710 0
-119 -710 0
-120 -710 0
121 -710 0
-125 -710 0
-130 -710 0
133 -710 0
-136 -710 0
-139 -710 0
154 -710 0
-155 -710 0
159 -710 0
-162 -710 0
-170 -710 0
-171 -710 0
174 -710 0
-176 -710 0
178 -710 0
-180 -710 0
-193 -710 0
202 -710 0
208 -710 0
211 -710 0
215 -710 0
-218 -710 0
221 -710 0
225 -710 0
-232 -710 0
-237 -710 0
-239 -710 0
-241 -710 0
711 -716 0
712 -716 0
713 -716 0
306 -716 0
352 -716 0
714 -716 0
715 -716 0
328 -716 0
709 -717 0
710 -717 0
716 -717 0
717 -718 0
624 718 -719 0
11 -720 0
36 -720 0
-87 -720 0
175 -720 0
-185 -720 0
187 -720 0
199 -720 0
-210 -720 0
-224 -720 0
238 -720 0
719 -721 0
720 -721 0
721 -722 0
623 722 -723 0
-16 -724 0
723 -725 0
724 -725 0
725 -726 0
-243 -726 0
622 726 -727 0
727 -728 0
251 -729 0
728 729 -730 0
730 -732 0
731 -732 0
732 -733 0
447 733 -734 0
734 -735 0
735 -736 0
251 -737 0
736 737 -738 0
738 -739 0
102 -739 0
251 -740 0
251 -741 0
251 -742 0
-3 -743 0
4 -743 0
-10 -743 0
-11 -743 0
16 -743 0
-17 -743 0
-23 -743 0
30 -743 0
32 -743 0
33 -743 0
-36 -743 0
39 -743 0
-42 -743 0
44 -743 0
-45 -743 0
48 -743 0
52 -743 0
55 -743 0
-57 -743 0
-59 -743 0
-67 -743 0
74 -743 0
-76 -743 0
77 -743 0
84 -743 0
-87 -743 0
90 -743 0
104 -743 0
-105 -743 0
106 -743 0
-110 -743 0
112 -743 0
119 -743 0
-130 -743 0
-133 -743 0
136 -743 0
-138 -743 0
-139 -743 0
-154 -743 0
164 -743 0
170 -743 0
171 -743 0
-174 -743 0
-175 -743 0
176 -743 0
178 -743 0
-182 -743 0
-183 -743 0
-187 -743 0
193 -743 0
198 -743 0
-199 -743 0
-202 -743 0
-208 -743 0
210 -743 0
-212 -743 0
221 -743 0
224 -743 0
225 -743 0
-229 -743 0
232 -743 0
237 -743 0
-238 -743 0
239 -743 0
241 -743 0
606 -744 0
310 -744 0
328 -744 0
607 -744 0
595 -745 0
454 -745 0
604 -745 0
743 -745 0
744 -745 0
745 -746 0
251 -747 0
746 747 -748 0
748 -749 0
749 -750 0
251 -751 0
750 751 -752 0
752 -754 0
753 -754 0
754 -755 0
185 -755 0
251 -756 0
755 756 -757 0
757 -758 0
758 -759 0
251 -760 0
759 760 -761 0
761 -762 0
251 -763 0
762 763 -764 0
764 -765 0
765 -766 0
251 -767 0
766 767 -768 0
768 -769 0
769 -770 0
251 -771 0
770 771 -772 0
772 -773 0
742 773 -774 0
774 -776 0
775 -776 0
776 -777 0
741 777 -778 0
778 -779 0
779 -780 0
243 -780 0
251 -781 0
251 -782 0
182 -783 0
643 -783 0
783 -784 0
229 -784 0
643 -785 0
785 -786 0
182 -786 0
-110 -787 0
-182 -787 0
786 787 -788 0
788 -789 0
-229 -789 0
784 789 -790 0
641 -791 0
39 -791 0
705 -792 0
305 -792 0
-189 -793 0
792 -793 0
793 -794 0
-39 -794 0
791 794 -795 0
790 -796 0
795 -796 0
796 -797 0
138 -797 0
182 -798 0
229 -798 0
799 -800 0
800 -801 0
-229 -801 0
798 801 -802 0
641 -803 0
802 -803 0
39 -803 0
803 -804 0
643 -804 0
804 -805 0
-138 -805 0
797 805 -806 0
806 -807 0
141 -807 0
788 -808 0
795 -808 0
808 -809 0
138 -809 0
641 -810 0
39 -810 0
810 -811 0
643 -811 0
799 -811 0
811 -812 0
-138 -812 0
809 812 -813 0
813 -814 0
-229 -814 0
814 -815 0
-141 -815 0
807 815 -816 0
-32 -817 0
53 -817 0
-250 -817 0
667 -818 0
668 -818 0
632 -819 0
816 -819 0
549 -819 0
817 -819 0
818 -819 0
819 -820 0
10 -820 0
681 -821 0
450 -821 0
821 -822 0
626 -822 0
822 -823 0
164 -823 0
454 -824 0
629 -824 0
824 -825 0
475 -825 0
825 -826 0
-164 -826 0
823 826 -827 0
642 -828 0
643 -828 0
828 -829 0
229 -829 0
788 -830 0
310 -830 0
830 -831 0
-229 -831 0
829 831 -832 0
30 -833 0
32 -833 0
-39 -833 0
-67 -833 0
138 -833 0
188 -833 0
-189 -833 0
307 -834 0
705 -834 0
305 -834 0
827 -835 0
832 -835 0
833 -835 0
834 -835 0
835 -836 0
-10 -836 0
820 836 -837 0
3 -838 0
-4 -838 0
7 -838 0
-9 -838 0
11 -838 0
12 -838 0
-13 -838 0
-15 -838 0
17 -838 0
23 -838 0
-24 -838 0
33 -838 0
36 -838 0
38 -838 0
42 -838 0
-44 -838 0
45 -838 0
-48 -838 0
50 -838 0
-52 -838 0
55 -838 0
57 -838 0
-58 -838 0
59 -838 0
65 -838 0
-74 -838 0
-76 -838 0
-77 -838 0
-87 -838 0
94 -838 0
98 -838 0
-104 -838 0
105 -838 0
-106 -838 0
112 -838 0
-119 -838 0
-120 -838 0
121 -838 0
-125 -838 0
-130 -838 0
133 -838 0
-136 -838 0
-139 -838 0
154 -838 0
-155 -838 0
159 -838 0
-162 -838 0
-170 -838 0
-171 -838 0
174 -838 0
175 -838 0
-176 -838 0
178 -838 0
-180 -838 0
-185 -838 0
187 -838 0
-193 -838 0
199 -838 0
202 -838 0
208 -838 0
-210 -838 0
211 -838 0
215 -838 0
-218 -838 0
221 -838 0
225 -838 0
-232 -838 0
-237 -838 0
238 -838 0
-239 -838 0
-241 -838 0
711 -839 0
712 -839 0
306 -839 0
352 -839 0
713 -839 0
714 -839 0
715 -839 0
328 -839 0
837 -840 0
838 -840 0
839 -840 0
840 -841 0
782 841 -842 0
842 -843 0
781 843 -844 0
-16 -845 0
-224 -845 0
844 -846 0
845 -846 0
846 -847 0
-243 -847 0
780 847 -848 0
848 -849 0
251 -850 0
849 850 -851 0
851 -853 0
852 -853 0
853 -854 0
740 854 -855 0
855 -856 0
856 -857 0
251 -858 0
857 858 -859 0
859 -860 0
-102 -860 0
861 -862 0
251 -866 0
251 -871 0
251 -874 0
-71 -876 0
877 0
-2 0
-5 0
6 0
8 0
14 0
18 0
-19 0
-20 0
21 0
25 0
-26 0
29 0
31 0
34 0
35 0
-37 0
-40 0
41 0
43 0
-46 0
47 0
-49 0
51 0
60 0
61 0
62 0
63 0
64 0
66 0
-70 0
-73 0
-75 0
80 0
81 0
83 0
-86 0
88 0
-89 0
-91 0
-92 0
93 0
95 0
96 0
97 0
-103 0
-108 0
-113 0
114 0
115 0
116 0
117 0
118 0
-122 0
123 0
124 0
126 0
127 0
-129 0
131 0
134 0
-143 0
145 0
150 0
-153 0
156 0
157 0
158 0
-160 0
-163 0
-165 0
168 0
-169 0
-172 0
-173 0
-184 0
186 0
194 0
195 0
200 0
201 0
-203 0
-206 0
-209 0
-213 0
214 0
216 0
219 0
222 0
-226 0
231 0
233 0
-235 0
-240 0
242 0
-244 0
-245 0
247 0
249 0
-870 872 0
-869 870 0
-868 869 0
-867 868 0
-864 865 0
-863 864 0
-860 861 0
-856 857 0
-854 855 0
-853 854 0
-846 847 0
-837 840 0
-835 836 0
-820 837 0
-816 819 0
-815 816 0
-814 815 0
-813 814 0
-811 812 0
-810 811 0
-809 813 0
-808 809 0
-807 816 0
-806 807 0
-801 802 0
-800 801 0
-873 875 0
-797 806 0
-796 797 0
-794 795 0
-793 794 0
-792 793 0
-791 795 0
-788 789 808 830 0
-780 848 0
-779 780 0
-778 779 0
-777 778 0
-776 777 0
-774 776 0
-773 774 0
-861 862 0
-769 770 0
234 767 0
-764 765 0
-757 758 0
-753 754 0
-745 746 0
-739 861 0
-738 739 0
-731 732 0
-728 730 0
-727 728 0
-789 790 0
-724 725 0
-723 725 0
-722 723 0
-721 722 0
-175 720 838 0
-36 720 838 0
-719 721 0
-717 718 0
-715 716 839 0
-714 716 839 0
-713 716 839 0
-712 716 839 0
-710 717 0
-154 710 838 0
74 710 838 0
-59 710 838 0
-833 835 0
-45 710 838 0
-862 863 0
-706 707 0
-705 706 792 834 0
-704 707 0
-703 707 0
-700 701 0
-698 701 0
-696 697 0
-695 707 0
-694 695 0
-689 690 0
-688 689 0
-687 688 0
-685 686 0
-682 683 0
-680 682 0
-678 679 0
-677 678 0
-676 677 0
-675 680 0
-772 773 0
-673 674 0
-670 671 0
30 668 0
-67 667 0
-666 670 0
-665 670 0
-663 664 0
-661 662 0
-660 661 0
-659 660 0
-657 658 0
-654 657 0
-651 652 698 0
-649 651 0
-648 649 0
-647 665 0
-229 647 697 784 798 829 0
-110 643 650 659 0
-639 640 0
-637 641 0
-635 636 0
-634 635 0
-632 670 819 0
164 631 694 826 0
-630 631 0
84 629 0
-627 628 0
-626 627 683 822 0
-625 627 0
-622 727 0
-784 790 0
-621 622 0
-620 621 0
-787 788 0
-619 620 0
-618 619 0
-832 835 0
-617 618 0
-616 618 0
-612 614 0
-610 612 0
-608 609 0
-643 645 648 655 696 783 785 804 811 828 0
-607 608 744 0
-641 670 791 803 810 0
-606 608 744 0
-605 609 0
-241 605 743 0
-239 605 743 0
-743 745 0
238 605 743 0
-232 605 743 0
212 605 712 743 0
-210 605 743 0
202 605 743 0
199 605 743 0
-198 605 713 743 0
-193 605 743 0
-672 673 685 0
-176 605 743 0
-613 614 0
174 605 743 0
-615 616 0
-119 605 743 0
-819 820 0
105 605 743 0
-104 605 743 0
-52 605 743 0
-628 632 0
-48 605 743 0
-44 605 743 0
42 605 743 0
-39 605 671 743 791 803 810 0
-106 605 743 0
-4 605 743 0
-604 609 745 0
-601 602 0
-707 708 0
-600 602 0
-597 598 0
-595 609 745 0
-594 595 0
128 594 715 0
-593 594 0
-592 593 0
-591 593 0
-683 684 0
-586 587 0
-692 693 0
-585 586 0
-584 585 0
-690 691 0
-583 586 0
-581 582 0
-580 581 0
-839 840 0
-578 579 0
-574 575 0
-572 575 0
-568 569 0
-567 568 0
-566 567 0
-859 860 0
-766 768 0
-563 564 0
-765 766 0
-562 563 0
-560 562 0
-855 856 0
-762 764 0
-559 560 0
-558 580 0
-109 558 588 637 705 0
-557 558 0
-759 761 0
-555 556 0
-848 849 0
-755 757 0
-552 553 576 593 0
-754 755 0
-182 642 653 698 783 786 798 799 0
-551 552 0
-844 846 0
-750 752 0
-550 551 0
-749 750 0
-549 550 670 677 688 819 0
-746 748 0
-546 547 0
-752 754 0
-545 552 0
-841 842 0
-542 553 0
-540 541 0
-831 832 0
-538 539 0
-636 637 0
-537 540 0
-536 537 0
-16 605 743 0
-534 535 0
-533 535 0
-531 542 0
-530 531 0
-851 853 0
-758 759 0
-529 556 0
-528 529 0
-180 527 531 572 0
-179 527 530 533 538 571 584 626 0
98 525 539 585 0
-524 525 0
-522 523 0
-521 522 532 0
-155 521 524 538 584 0
58 520 524 538 592 710 838 0
-519 528 0
-517 518 0
188 515 548 567 0
-513 516 0
-512 513 0
-511 519 0
-159 511 545 560 710 838 0
-510 511 0
-509 510 544 559 0
-508 510 0
-507 508 0
-506 581 0
-812 813 0
-505 506 0
-121 597 600 710 838 0
7 505 592 0
-504 505 0
-556 557 0
-125 503 0
-502 504 0
-501 504 593 0
-498 501 0
-629 630 692 824 0
-107 498 711 0
-497 504 593 0
-496 497 0
-495 496 0
-494 495 0
-492 493 0
-491 504 0
-489 490 0
-403 404 0
-711 716 839 0
-614 615 0
175 386 605 743 0
171 401 710 838 0
-845 846 0
67 386 605 667 672 743 833 0
59 386 605 743 0
54 386 475 488 592 625 681 0
52 386 710 838 0
48 386 710 838 0
-834 835 0
45 386 605 743 0
-196 258 448 623 741 781 0
-31 386 862 0
-646 647 0
-248 306 338 0
-686 691 0
-579 580 0
-69 386 0
-590 591 0
-28 259 447 740 0
-461 462 0
-656 657 0
-32 386 605 675 686 743 833 0
-726 727 0
-98 386 523 537 573 583 589 710 838 0
-664 665 0
-387 392 0
190 417 763 0
-587 588 0
-488 489 0
-633 636 0
111 429 866 0
-405 406 0
110 386 605 643 654 699 743 787 0
-638 639 0
155 386 521 534 710 838 0
-3 386 710 838 0
-554 555 0
-343 344 0
-330 333 0
-802 803 0
-383 384 0
-380 381 0
-212 386 712 0
119 405 710 838 0
53 273 453 0
-503 504 593 0
-366 367 0
-799 800 811 0
-78 386 0
170 282 710 838 0
-473 480 0
-42 386 710 838 0
-679 680 0
-30 386 605 668 672 743 833 0
-577 578 0
-363 364 0
-470 471 0
-360 365 0
-576 577 0
-359 360 0
-526 528 530 569 571 0
-355 356 0
-354 357 0
-352 353 471 495 716 839 0
162 386 606 710 838 0
136 710 838 0
-350 351 0
-573 574 0
101 414 0
-564 565 0
-347 348 0
-23 710 838 0
55 347 377 0
-345 346 376 0
-857 859 0
187 414 605 743 0
-344 346 0
-708 709 0
-291 294 0
-836 837 0
-54 474 475 484 0
-768 769 0
-189 338 633 638 0
179 386 534 626 629 0
-329 330 0
-423 424 0
-341 344 375 563 576 589 0
-130 327 0
-699 700 0
-435 436 0
221 325 356 0
-775 776 0
-322 323 0
-490 491 0
-76 284 286 349 0
-516 517 0
-280 281 0
57 605 743 0
-535 536 573 583 589 0
-112 275 605 710 743 838 0
204 408 0
72 384 747 0
-370 371 0
10 386 605 672 743 836 0
-353 354 0
-277 278 0
-283 309 335 371 0
-149 414 0
-278 309 0
215 386 596 601 0
-275 278 0
-274 275 0
-187 720 838 0
-336 337 0
-273 274 0
-515 516 0
218 301 380 555 577 592 710 838 0
-487 489 0
-374 375 0
33 295 298 0
-840 841 0
246 307 514 548 566 0
-826 827 0
-439 440 0
-331 332 0
-822 823 0
3 605 743 0
-325 326 0
-437 438 0
-53 272 276 382 452 666 681 687 817 0
-246 307 324 355 0
-377 378 0
-736 738 0
44 386 710 838 0
-320 321 0
-795 796 808 0
-12 386 457 468 710 838 0
-77 270 273 605 743 0
-269 393 0
-803 804 0
141 310 382 650 660 815 0
-268 269 0
-642 646 696 828 0
-24 598 0
56 442 874 0
-655 656 0
181 298 0
-310 311 744 830 0
-82 386 0
-379 380 0
-301 302 0
-338 341 0
185 268 720 756 838 0
161 387 0
-382 383 0
232 386 710 838 0
-798 802 0
139 303 313 315 364 605 710 743 838 0
-146 252 870 0
-539 540 0
-7 386 483 710 838 0
-286 290 0
-645 646 0
15 386 472 496 710 838 0
-260 261 469 0
-102 254 739 0
-261 269 0
-208 304 710 838 0
-817 819 0
-282 283 0
-419 420 0
-367 370 0
-170 281 342 605 743 0
-364 365 0
-474 478 0
-279 280 0
-662 663 0
130 303 327 331 368 605 710 743 838 0
-391 392 0
-272 274 0
65 260 266 455 458 502 592 0
133 605 743 0
-38 263 710 838 0
-397 398 0
178 345 0
-609 610 0
-378 379 0
176 386 710 838 0
-852 853 0
87 303 332 369 617 720 743 838 0
-281 283 0
-827 835 0
-472 473 0
90 714 0
-288 289 0
-271 272 0
-185 261 613 755 0
-482 483 0
-748 749 0
-548 549 0
248 306 514 566 0
-386 393 0
-267 268 468 0
-575 576 0
-357 359 0
-424 425 0
-375 376 0
-332 333 0
-243 255 622 780 0
-373 378 0
-523 526 0
-296 297 0
-598 604 0
-384 385 0
-230 257 0
-50 279 282 474 485 710 838 0
-589 590 0
-265 267 0
-644 645 652 0
-55 303 337 373 605 710 743 838 0
-824 825 0
237 710 838 0
-323 326 0
-436 437 0
11 605 743 0
76 289 292 605 710 743 838 0
79 611 771 0
-381 383 0
-139 315 318 324 360 0
-486 487 0
-842 843 0
-547 549 0
24 386 603 710 838 0
-57 386 710 838 0
-65 265 455 710 838 0
-409 411 0
-335 336 0
-177 284 291 328 331 0
-264 265 0
-477 478 0
-365 379 0
-525 526 0
225 284 286 287 349 0
-218 285 351 529 570 0
125 386 479 503 710 838 0
-285 302 0
-225 287 292 605 710 743 838 0
9 405 488 592 710 838 0
-287 288 0
-518 519 0
-290 291 366 375 0
-570 578 0
-361 362 0
-821 822 0
106 386 710 838 0
-199 410 720 838 0
-671 709 0
-292 293 0
-693 694 0
-74 386 605 743 0
-434 435 0
166 401 0
-426 427 0
-543 544 0
177 293 328 0
-85 423 0
-339 340 0
154 405 605 743 0
-709 717 0
-293 294 0
-181 284 297 349 358 605 710 743 838 0
-294 300 368 0
-730 732 0
-315 316 0
112 277 382 0
17 419 605 743 0
-9 479 484 487 0
-372 373 0
23 386 605 743 0
-297 299 0
-716 717 0
-300 301 0
227 386 0
-603 604 0
-385 393 0
-527 528 569 0
-376 377 0
-804 805 0
-141 310 605 642 649 658 699 807 0
-298 299 0
236 737 858 0
-324 325 0
-414 415 0
-734 735 0
-319 320 0
-321 322 0
-303 309 0
22 395 0
-299 300 362 0
-349 350 0
-476 477 0
68 397 751 0
27 481 0
-284 285 0
-128 386 582 715 0
220 389 0
-735 736 0
-669 670 0
-314 321 0
-351 381 0
99 432 729 850 0
-302 309 0
-178 303 334 345 605 710 743 838 0
-221 303 323 354 361 605 710 743 838 0
-596 597 599 0
-493 497 0
208 304 342 605 743 0
-541 542 0
-553 554 0
12 458 469 502 592 0
4 386 710 838 0
138 605 644 656 659 743 805 812 0
-304 308 336 372 0
-346 347 0
-849 851 0
-183 305 314 633 0
-702 703 0
-307 308 322 353 362 507 512 543 546 564 673 685 834 0
-270 271 276 383 0
-211 386 509 517 550 561 566 710 838 0
-830 831 0
50 279 342 477 490 592 0
183 305 320 324 358 605 743 0
-829 832 0
-443 444 0
-825 826 0
-326 350 0
-438 439 0
-701 702 0
-305 308 363 634 639 706 792 834 0
-171 605 743 0
-327 329 343 366 374 0
-440 441 0
-720 721 0
-838 840 0
-147 386 0
-697 703 0
-306 308 335 339 371 507 512 554 587 716 839 0
-828 829 0
-17 710 838 0
-441 443 0
-499 500 0
-308 309 0
13 386 607 710 838 0
-362 363 0
-162 606 0
-427 428 0
-430 431 0
39 386 708 794 833 0
-309 311 0
-100 253 445 0
-681 682 821 0
-465 466 0
192 405 0
-313 314 0
-602 603 0
211 509 0
-312 385 0
-732 733 0
-316 317 0
104 386 710 838 0
-197 427 449 624 742 782 0
-464 465 492 0
-744 745 0
107 386 479 500 711 0
-10 666 676 687 820 0
-823 827 0
-334 335 371 0
109 386 579 590 640 705 0
-691 692 0
-202 386 710 838 0
210 386 720 838 0
-650 651 0
-120 386 460 0
-847 848 0
121 386 601 0
-561 562 0
-481 482 0
-818 819 0
-87 330 342 367 0
-399 400 0
-565 568 0
-348 350 0
38 260 263 266 494 0
-571 572 0
-390 392 0
135 386 0
-469 470 0
-137 386 0
-805 806 0
-138 386 644 654 704 797 809 833 0
-262 264 271 280 288 296 316 329 339 353 451 456 461 476 486 499 512 522 532 546 559 599 634 639 648 655 785 800 0
-276 277 0
144 386 0
151 386 0
-289 290 0
-152 386 0
159 386 518 551 561 566 0
-164 386 605 628 684 743 823 0
-167 386 0
-640 641 0
-174 386 710 838 0
-317 319 0
180 386 541 574 592 710 838 0
-514 515 0
-652 653 0
-658 661 0
-410 411 0
-770 772 0
-358 359 0
-191 386 0
193 386 710 838 0
-674 675 0
198 386 713 0
77 270 710 838 0
-520 522 536 573 0
-295 296 359 0
224 386 720 845 0
229 386 605 664 702 743 789 801 814 831 0
-237 386 605 743 0
-238 386 720 838 0
-250 386 450 453 0
-94 388 498 710 838 0
-718 719 0
94 388 0
-388 392 480 499 0
-454 609 685 745 824 0
-389 392 0
-532 533 0
132 318 324 352 355 463 0
-459 465 0
-416 418 0
-500 501 0
-142 391 0
-875 876 0
-356 357 0
-392 393 0
-393 394 0
-342 344 375 0
-872 873 0
-394 396 0
-215 596 710 838 0
-396 398 0
-266 267 0
-421 422 0
16 386 724 845 0
-398 399 0
-684 695 0
-418 420 0
-783 784 0
-400 402 0
182 401 605 662 700 743 787 799 0
-90 410 605 714 743 0
-733 734 0
-667 669 678 689 818 0
-318 319 0
-401 402 0
-725 726 0
-99 431 728 849 0
-404 406 0
-451 452 0
-132 303 313 317 352 361 462 0
36 405 605 743 0
-133 386 710 838 0
250 450 666 676 687 817 0
-843 844 0
-58 405 520 0
32 666 679 690 817 0
-333 335 0
-402 403 0
148 405 0
-369 370 0
-588 591 0
-263 264 466 492 0
-328 329 343 366 374 608 716 744 839 0
-582 595 0
-207 405 0
223 405 0
241 405 710 838 0
-406 407 0
-452 454 0
-407 409 0
-33 284 295 349 605 710 743 838 0
-453 454 0
-411 412 0
-412 413 0
-224 605 743 0
-413 415 0
-371 372 0
-11 414 720 838 0
-569 570 0
-136 386 605 743 0
-13 607 0
-865 867 0
205 414 0
-415 416 0
-1 419 0
-631 632 0
239 419 710 838 0
-420 421 0
-599 600 0
-311 312 0
140 421 760 0
228 390 0
-422 424 0
243 425 726 847 0
-425 426 0
-428 430 0
-431 433 0
-668 669 678 689 818 0
-105 397 710 838 0
-433 434 0
-785 786 0
146 439 871 0
-217 446 0
-790 796 0
-786 788 0
-761 762 0
-340 341 0
-455 456 0
-456 457 0
-188 386 508 513 543 547 565 672 833 0
-457 459 0
-458 459 0
-544 545 0
189 303 334 340 557 566 587 635 638 704 793 833 0
-337 348 0
-460 461 0
-462 464 0
-463 464 0
-466 467 0
-450 451 674 821 0
-15 467 493 0
-467 473 0
-468 470 0
-471 472 0
-475 476 486 630 693 825 0
-368 369 0
-478 480 0
-653 663 0
-479 480 0
-480 482 0
-483 506 0
-484 485 0
-485 491 0
